HFSDDW
15	6	3
0	94	1	43	2	69
0	31	1	94	2	70
0	32	1	92	2	16
0	91	1	86	2	1
0	77	1	81	2	3
0	3	1	42	2	3
0	5	1	94	2	92
0	23	1	59	2	70
0	87	1	61	2	18
0	88	1	25	2	99
0	37	1	69	2	98
0	38	1	9	2	44
0	45	1	52	2	30
0	59	1	41	2	86
0	67	1	13	2	47
LBCmax: 457
RELDUE
-1	235	5	4
-1	396	7	2
-1	427	5	2
-1	417	1	4
-1	295	7	6
-1	230	6	9
-1	434	7	5
-1	387	5	1
-1	260	6	5
-1	252	3	8
-1	426	9	5
-1	460	2	1
-1	500	9	6
-1	346	2	8
-1	321	3	4
DDW
204	266
356	436
418	436
334	500
289	301
184	276
417	451
348	426
229	291
237	267
422	430
437	483
400	600
336	356
276	366
